objective value:                                11650
t_x_1                                               1 	(obj:58)
t_x_4                                               1 	(obj:13)
t_x_7                                               1 	(obj:6)
t_x_12                                              1 	(obj:29)
t_x_13                                              1 	(obj:33)
t_x_16                                              1 	(obj:43)
t_x_18                                              1 	(obj:16)
t_x_22                                              1 	(obj:2)
t_x_23                                              1 	(obj:7)
t_x_25                                              1 	(obj:41)
t_x_29                                              1 	(obj:5)
t_x_31                                              1 	(obj:20)
t_x_32                                              1 	(obj:7)
t_x_36                                              1 	(obj:17)
t_x_39                                              1 	(obj:36)
t_x_41                                              1 	(obj:24)
t_x_44                                              1 	(obj:12)
t_x_46                                              1 	(obj:18)
t_x_47                                              1 	(obj:18)
t_x_48                                              1 	(obj:43)
t_x_50                                              1 	(obj:30)
t_x_52                                              1 	(obj:21)
t_x_53                                              1 	(obj:8)
t_x_56                                              1 	(obj:32)
t_x_60                                              1 	(obj:18)
t_x_62                                              1 	(obj:29)
t_x_63                                              1 	(obj:25)
t_x_64                                              1 	(obj:25)
t_x_65                                              1 	(obj:23)
t_x_66                                              1 	(obj:83)
t_x_70                                              1 	(obj:8)
t_x_74                                              1 	(obj:38)
t_x_75                                              1 	(obj:21)
t_x_77                                              1 	(obj:6)
t_x_80                                              1 	(obj:21)
t_x_82                                              1 	(obj:24)
t_x_84                                              1 	(obj:34)
t_x_85                                              1 	(obj:36)
t_x_90                                              1 	(obj:17)
t_x_91                                              1 	(obj:32)
t_x_92                                              1 	(obj:37)
t_x_99                                              1 	(obj:59)
t_x_102                                             1 	(obj:24)
t_x_105                                             1 	(obj:20)
t_x_107                                             1 	(obj:8)
t_x_108                                             1 	(obj:47)
t_x_109                                             1 	(obj:20)
t_x_113                                             1 	(obj:55)
t_x_115                                             1 	(obj:13)
t_x_118                                             1 	(obj:2)
t_x_122                                             1 	(obj:42)
t_x_126                                             1 	(obj:26)
t_x_129                                             1 	(obj:42)
t_x_132                                             1 	(obj:28)
t_x_137                                             1 	(obj:10)
t_x_139                                             1 	(obj:16)
t_x_143                                             1 	(obj:5)
t_x_144                                             1 	(obj:39)
t_x_145                                             1 	(obj:36)
t_x_149                                             1 	(obj:6)
t_x_153                                             1 	(obj:5)
t_x_154                                             1 	(obj:44)
t_x_155                                             1 	(obj:24)
t_x_156                                             1 	(obj:28)
t_x_160                                             1 	(obj:44)
t_x_161                                             1 	(obj:11)
t_x_162                                             1 	(obj:23)
t_x_170                                             1 	(obj:6)
t_x_171                                             1 	(obj:35)
t_x_173                                             1 	(obj:17)
t_x_174                                             1 	(obj:50)
t_x_179                                             1 	(obj:61)
t_x_183                                             1 	(obj:8)
t_x_192                                             1 	(obj:20)
t_x_193                                             1 	(obj:16)
t_x_196                                             1 	(obj:13)
t_x_199                                             1 	(obj:33)
t_x_200                                             1 	(obj:39)
t_x_201                                             1 	(obj:42)
t_x_203                                             1 	(obj:10)
t_x_206                                             1 	(obj:21)
t_x_207                                             1 	(obj:10)
t_x_216                                             1 	(obj:38)
t_x_218                                             1 	(obj:1)
t_x_228                                             1 	(obj:19)
t_x_230                                             1 	(obj:6)
t_x_232                                             1 	(obj:28)
t_x_241                                             1 	(obj:28)
t_x_242                                             1 	(obj:18)
t_x_249                                             1 	(obj:23)
t_x_252                                             1 	(obj:6)
t_x_253                                             1 	(obj:10)
t_x_264                                             1 	(obj:2)
t_x_268                                             1 	(obj:30)
t_x_281                                             1 	(obj:12)
t_x_285                                             1 	(obj:5)
t_x_290                                             1 	(obj:18)
t_x_294                                             1 	(obj:9)
t_x_296                                             1 	(obj:13)
t_x_301                                             1 	(obj:8)
t_x_302                                             1 	(obj:7)
t_x_305                                             1 	(obj:16)
t_x_306                                             1 	(obj:32)
t_x_307                                             1 	(obj:10)
t_x_310                                             1 	(obj:45)
t_x_316                                             1 	(obj:30)
t_x_317                                             1 	(obj:0)
t_x_320                                             1 	(obj:0)
t_x_321                                             1 	(obj:28)
t_x_322                                             1 	(obj:1)
t_x_324                                             1 	(obj:28)
t_x_328                                             1 	(obj:11)
t_x_330                                             1 	(obj:19)
t_x_336                                             1 	(obj:21)
t_x_338                                             1 	(obj:8)
t_x_342                                             1 	(obj:2)
t_x_345                                             1 	(obj:15)
t_x_347                                             1 	(obj:15)
t_x_353                                             1 	(obj:23)
t_x_355                                             1 	(obj:25)
t_x_359                                             1 	(obj:14)
t_x_362                                             1 	(obj:2)
t_x_370                                             1 	(obj:8)
t_x_371                                             1 	(obj:42)
t_x_376                                             1 	(obj:30)
t_x_384                                             1 	(obj:23)
t_x_385                                             1 	(obj:5)
t_x_387                                             1 	(obj:6)
t_x_396                                             1 	(obj:9)
t_x_397                                             1 	(obj:34)
t_x_399                                             1 	(obj:10)
t_x_400                                             1 	(obj:32)
t_x_408                                             1 	(obj:2)
t_x_412                                             1 	(obj:14)
t_x_415                                             1 	(obj:17)
t_x_416                                             1 	(obj:20)
t_x_417                                             1 	(obj:11)
t_x_419                                             1 	(obj:2)
t_x_428                                             1 	(obj:19)
t_x_430                                             1 	(obj:26)
t_x_435                                             1 	(obj:28)
t_x_447                                             1 	(obj:16)
t_x_448                                             1 	(obj:16)
t_x_451                                             1 	(obj:12)
t_x_454                                             1 	(obj:4)
t_x_455                                             1 	(obj:24)
t_x_461                                             1 	(obj:13)
t_x_463                                             1 	(obj:4)
t_x_465                                             1 	(obj:10)
t_x_468                                             1 	(obj:14)
t_x_478                                             1 	(obj:22)
t_x_479                                             1 	(obj:20)
t_x_482                                             1 	(obj:13)
t_x_487                                             1 	(obj:2)
t_x_491                                             1 	(obj:90)
t_x_493                                             1 	(obj:4)
t_x_503                                             1 	(obj:5)
t_x_506                                             1 	(obj:33)
t_x_510                                             1 	(obj:18)
t_x_511                                             1 	(obj:17)
t_x_512                                             1 	(obj:24)
t_x_513                                             1 	(obj:21)
t_x_520                                             1 	(obj:2)
t_x_526                                             1 	(obj:9)
t_x_528                                             1 	(obj:22)
t_x_530                                             1 	(obj:20)
t_x_533                                             1 	(obj:17)
t_x_534                                             1 	(obj:5)
t_x_536                                             1 	(obj:14)
t_x_538                                             1 	(obj:9)
t_x_539                                             1 	(obj:41)
t_x_542                                             1 	(obj:51)
t_x_544                                             1 	(obj:10)
t_x_545                                             1 	(obj:0)
t_x_548                                             1 	(obj:35)
t_x_549                                             1 	(obj:12)
t_x_550                                             1 	(obj:7)
t_x_560                                             1 	(obj:22)
t_x_563                                             1 	(obj:28)
t_x_565                                             1 	(obj:16)
t_x_569                                             1 	(obj:11)
t_x_572                                             1 	(obj:5)
t_x_573                                             1 	(obj:23)
t_x_578                                             1 	(obj:10)
t_x_582                                             1 	(obj:19)
t_x_588                                             1 	(obj:4)
t_x_596                                             1 	(obj:7)
t_x_599                                             1 	(obj:32)
t_x_602                                             1 	(obj:14)
t_x_608                                             1 	(obj:51)
t_x_611                                             1 	(obj:14)
t_x_614                                             1 	(obj:32)
t_x_619                                             1 	(obj:3)
t_x_620                                             1 	(obj:15)
t_x_621                                             1 	(obj:6)
t_x_625                                             1 	(obj:16)
t_x_635                                             1 	(obj:38)
t_x_637                                             1 	(obj:7)
t_x_642                                             1 	(obj:26)
t_x_649                                             1 	(obj:26)
t_x_650                                             1 	(obj:19)
t_x_652                                             1 	(obj:4)
t_x_657                                             1 	(obj:25)
t_x_658                                             1 	(obj:45)
t_x_662                                             1 	(obj:1)
t_x_663                                             1 	(obj:14)
t_x_670                                             1 	(obj:14)
t_x_675                                             1 	(obj:14)
t_x_678                                             1 	(obj:0)
t_x_687                                             1 	(obj:17)
t_x_693                                             1 	(obj:1)
t_x_697                                             1 	(obj:66)
t_x_701                                             1 	(obj:14)
t_x_703                                             1 	(obj:22)
t_x_704                                             1 	(obj:18)
t_x_710                                             1 	(obj:23)
t_x_711                                             1 	(obj:19)
t_x_715                                             1 	(obj:21)
t_x_716                                             1 	(obj:4)
t_x_719                                             1 	(obj:6)
t_x_721                                             1 	(obj:9)
t_x_723                                             1 	(obj:14)
t_x_724                                             1 	(obj:25)
t_x_726                                             1 	(obj:43)
t_x_727                                             1 	(obj:22)
t_x_730                                             1 	(obj:43)
t_x_746                                             1 	(obj:8)
t_x_751                                             1 	(obj:5)
t_x_753                                             1 	(obj:2)
t_x_755                                             1 	(obj:1)
t_x_759                                             1 	(obj:10)
t_x_760                                             1 	(obj:12)
t_x_761                                             1 	(obj:21)
t_x_765                                             1 	(obj:22)
t_x_768                                             1 	(obj:0)
t_x_771                                             1 	(obj:74)
t_x_777                                             1 	(obj:22)
t_x_781                                             1 	(obj:5)
t_x_783                                             1 	(obj:33)
t_x_789                                             1 	(obj:12)
t_x_794                                             1 	(obj:19)
t_x_798                                             1 	(obj:46)
t_x_805                                             1 	(obj:10)
t_x_809                                             1 	(obj:37)
t_x_812                                             1 	(obj:1)
t_x_816                                             1 	(obj:12)
t_x_817                                             1 	(obj:48)
t_x_821                                             1 	(obj:3)
t_x_823                                             1 	(obj:16)
t_x_828                                             1 	(obj:12)
t_x_830                                             1 	(obj:7)
t_x_832                                             1 	(obj:20)
t_x_840                                             1 	(obj:20)
t_x_843                                             1 	(obj:20)
t_x_845                                             1 	(obj:3)
t_x_847                                             1 	(obj:10)
t_x_848                                             1 	(obj:6)
t_x_850                                             1 	(obj:11)
t_x_852                                             1 	(obj:43)
t_x_862                                             1 	(obj:10)
t_x_863                                             1 	(obj:40)
t_x_864                                             1 	(obj:11)
t_x_875                                             1 	(obj:41)
t_x_876                                             1 	(obj:7)
t_x_878                                             1 	(obj:7)
t_x_883                                             1 	(obj:33)
t_x_884                                             1 	(obj:13)
t_x_890                                             1 	(obj:15)
t_x_892                                             1 	(obj:6)
t_x_899                                             1 	(obj:24)
t_x_900                                             1 	(obj:17)
t_x_903                                             1 	(obj:14)
t_x_908                                             1 	(obj:25)
t_x_910                                             1 	(obj:20)
t_x_914                                             1 	(obj:21)
t_x_915                                             1 	(obj:21)
t_x_918                                             1 	(obj:1)
t_x_919                                             1 	(obj:20)
t_x_925                                             1 	(obj:5)
t_x_927                                             1 	(obj:3)
t_x_928                                             1 	(obj:38)
t_x_931                                             1 	(obj:13)
t_x_942                                             1 	(obj:8)
t_x_958                                             1 	(obj:6)
t_x_960                                             1 	(obj:15)
t_x_967                                             1 	(obj:3)
t_x_970                                             1 	(obj:21)
t_x_976                                             1 	(obj:13)
t_x_977                                             1 	(obj:26)
t_x_979                                             1 	(obj:7)
t_x_980                                             1 	(obj:38)
t_x_981                                             1 	(obj:21)
t_x_984                                             1 	(obj:8)
t_x_988                                             1 	(obj:47)
t_x_991                                             1 	(obj:24)
t_x_993                                             1 	(obj:26)
t_x_997                                             1 	(obj:9)
t_x_1000                                            1 	(obj:17)
t_x_1002                                            1 	(obj:22)
t_x_1003                                            1 	(obj:34)
t_x_1004                                            1 	(obj:6)
t_x_1007                                            1 	(obj:11)
t_x_1017                                            1 	(obj:25)
t_x_1020                                            1 	(obj:35)
t_x_1022                                            1 	(obj:30)
t_x_1031                                            1 	(obj:12)
t_x_1032                                            1 	(obj:18)
t_x_1033                                            1 	(obj:11)
t_x_1035                                            1 	(obj:29)
t_x_1044                                            1 	(obj:2)
t_x_1046                                            1 	(obj:24)
t_x_1048                                            1 	(obj:30)
t_x_1052                                            1 	(obj:56)
t_x_1053                                            1 	(obj:27)
t_x_1055                                            1 	(obj:0)
t_x_1061                                            1 	(obj:9)
t_x_1064                                            1 	(obj:51)
t_x_1066                                            1 	(obj:4)
t_x_1070                                            1 	(obj:9)
t_x_1073                                            1 	(obj:3)
t_x_1075                                            1 	(obj:7)
t_x_1076                                            1 	(obj:31)
t_x_1078                                            1 	(obj:7)
t_x_1081                                            1 	(obj:29)
t_x_1091                                            1 	(obj:1)
t_x_1092                                            1 	(obj:0)
t_x_1098                                            1 	(obj:15)
t_x_1102                                            1 	(obj:4)
t_x_1118                                            1 	(obj:2)
t_x_1124                                            1 	(obj:29)
t_x_1129                                            1 	(obj:5)
t_x_1133                                            1 	(obj:18)
t_x_1136                                            1 	(obj:13)
t_x_1137                                            1 	(obj:4)
t_x_1138                                            1 	(obj:32)
t_x_1146                                            1 	(obj:19)
t_x_1149                                            1 	(obj:26)
t_x_1152                                            1 	(obj:19)
t_x_1153                                            1 	(obj:19)
t_x_1158                                            1 	(obj:44)
t_x_1159                                            1 	(obj:28)
t_x_1161                                            1 	(obj:1)
t_x_1162                                            1 	(obj:3)
t_x_1166                                            1 	(obj:10)
t_x_1169                                            1 	(obj:25)
t_x_1176                                            1 	(obj:7)
t_x_1179                                            1 	(obj:32)
t_x_1181                                            1 	(obj:3)
t_x_1183                                            1 	(obj:19)
t_x_1191                                            1 	(obj:26)
t_x_1193                                            1 	(obj:27)
t_x_1195                                            1 	(obj:24)
t_x_1201                                            1 	(obj:12)
t_x_1208                                            1 	(obj:9)
t_x_1211                                            1 	(obj:0)
t_x_1213                                            1 	(obj:15)
t_x_1214                                            1 	(obj:31)
t_x_1220                                            1 	(obj:5)
t_x_1221                                            1 	(obj:5)
t_x_1222                                            1 	(obj:23)
t_x_1225                                            1 	(obj:17)
t_x_1226                                            1 	(obj:22)
t_x_1227                                            1 	(obj:13)
t_x_1232                                            1 	(obj:16)
t_x_1234                                            1 	(obj:21)
t_x_1235                                            1 	(obj:25)
t_x_1238                                            1 	(obj:40)
t_x_1239                                            1 	(obj:21)
t_x_1249                                            1 	(obj:7)
t_x_1254                                            1 	(obj:19)
t_x_1255                                            1 	(obj:20)
t_x_1256                                            1 	(obj:18)
t_x_1265                                            1 	(obj:4)
t_x_1272                                            1 	(obj:36)
t_x_1273                                            1 	(obj:27)
t_x_1275                                            1 	(obj:2)
t_x_1280                                            1 	(obj:31)
t_x_1282                                            1 	(obj:4)
t_x_1285                                            1 	(obj:20)
t_x_1286                                            1 	(obj:10)
t_x_1288                                            1 	(obj:13)
t_x_1289                                            1 	(obj:18)
t_x_1293                                            1 	(obj:3)
t_x_1295                                            1 	(obj:20)
t_x_1299                                            1 	(obj:4)
t_x_1306                                            1 	(obj:22)
t_x_1309                                            1 	(obj:6)
t_x_1315                                            1 	(obj:29)
t_x_1316                                            1 	(obj:29)
t_x_1318                                            1 	(obj:22)
t_x_1319                                            1 	(obj:49)
t_x_1325                                            1 	(obj:28)
t_x_1326                                            1 	(obj:19)
t_x_1331                                            1 	(obj:4)
t_x_1333                                            1 	(obj:10)
t_x_1334                                            1 	(obj:41)
t_x_1345                                            1 	(obj:6)
t_x_1346                                            1 	(obj:23)
t_x_1347                                            1 	(obj:35)
t_x_1348                                            1 	(obj:29)
t_x_1350                                            1 	(obj:8)
t_x_1352                                            1 	(obj:40)
t_x_1355                                            1 	(obj:13)
t_x_1356                                            1 	(obj:36)
t_x_1357                                            1 	(obj:3)
t_x_1363                                            1 	(obj:8)
t_x_1364                                            1 	(obj:38)
t_x_1371                                            1 	(obj:18)
t_x_1374                                            1 	(obj:25)
t_x_1378                                            1 	(obj:28)
t_x_1379                                            1 	(obj:5)
t_x_1388                                            1 	(obj:15)
t_x_1391                                            1 	(obj:27)
t_x_1395                                            1 	(obj:4)
t_x_1398                                            1 	(obj:13)
t_x_1399                                            1 	(obj:0)
t_x_1400                                            1 	(obj:14)
t_x_1402                                            1 	(obj:16)
t_x_1406                                            1 	(obj:43)
t_x_1408                                            1 	(obj:70)
t_x_1409                                            1 	(obj:33)
t_x_1412                                            1 	(obj:6)
t_x_1413                                            1 	(obj:41)
t_x_1417                                            1 	(obj:20)
t_x_1423                                            1 	(obj:15)
t_x_1424                                            1 	(obj:19)
t_x_1426                                            1 	(obj:19)
t_x_1427                                            1 	(obj:75)
t_x_1428                                            1 	(obj:45)
t_x_1429                                            1 	(obj:16)
t_x_1433                                            1 	(obj:28)
t_x_1443                                            1 	(obj:57)
t_x_1447                                            1 	(obj:19)
t_x_1451                                            1 	(obj:10)
t_x_1454                                            1 	(obj:11)
t_x_1460                                            1 	(obj:30)
t_x_1467                                            1 	(obj:27)
t_x_1476                                            1 	(obj:14)
t_x_1488                                            1 	(obj:44)
t_x_1489                                            1 	(obj:14)
t_x_1495                                            1 	(obj:11)
t_x_1501                                            1 	(obj:0)
t_x_1503                                            1 	(obj:33)
t_x_1506                                            1 	(obj:32)
t_x_1507                                            1 	(obj:16)
t_x_1510                                            1 	(obj:2)
t_x_1511                                            1 	(obj:7)
t_x_1512                                            1 	(obj:0)
t_x_1513                                            1 	(obj:2)
t_x_1514                                            1 	(obj:4)
t_x_1515                                            1 	(obj:14)
t_x_1516                                            1 	(obj:5)
t_x_1518                                            1 	(obj:59)
t_x_1520                                            1 	(obj:6)
t_x_1522                                            1 	(obj:26)
t_x_1523                                            1 	(obj:7)
t_x_1525                                            1 	(obj:57)
t_x_1526                                            1 	(obj:3)
t_x_1532                                            1 	(obj:29)
t_x_1533                                            1 	(obj:24)
t_x_1534                                            1 	(obj:12)
t_x_1538                                            1 	(obj:37)
t_x_1551                                            1 	(obj:8)
t_x_1559                                            1 	(obj:3)
t_x_1560                                            1 	(obj:38)
t_x_1563                                            1 	(obj:21)
t_x_1565                                            1 	(obj:20)
t_x_1570                                            1 	(obj:9)
t_x_1575                                            1 	(obj:30)
t_x_1576                                            1 	(obj:15)
t_x_1578                                            1 	(obj:8)
t_x_1583                                            1 	(obj:6)
t_x_1584                                            1 	(obj:14)
t_x_1586                                            1 	(obj:6)
t_x_1587                                            1 	(obj:7)
t_x_1588                                            1 	(obj:34)
t_x_1601                                            1 	(obj:49)
t_x_1603                                            1 	(obj:8)
t_x_1604                                            1 	(obj:32)
t_x_1607                                            1 	(obj:4)
t_x_1610                                            1 	(obj:14)
t_x_1611                                            1 	(obj:42)
t_x_1615                                            1 	(obj:39)
t_x_1616                                            1 	(obj:2)
t_x_1617                                            1 	(obj:21)
t_x_1630                                            1 	(obj:64)
t_x_1631                                            1 	(obj:2)
t_x_1633                                            1 	(obj:8)
t_x_1642                                            1 	(obj:14)
t_x_1646                                            1 	(obj:17)
t_x_1647                                            1 	(obj:13)
t_x_1648                                            1 	(obj:21)
t_x_1650                                            1 	(obj:26)
t_x_1655                                            1 	(obj:26)
t_x_1656                                            1 	(obj:12)
t_x_1658                                            1 	(obj:14)
t_x_1661                                            1 	(obj:13)
t_x_1662                                            1 	(obj:8)
t_x_1665                                            1 	(obj:5)
t_x_1674                                            1 	(obj:3)
t_x_1676                                            1 	(obj:0)
t_x_1680                                            1 	(obj:20)
t_x_1681                                            1 	(obj:26)
t_x_1682                                            1 	(obj:14)
t_x_1683                                            1 	(obj:13)
t_x_1685                                            1 	(obj:0)
t_x_1686                                            1 	(obj:3)
t_x_1690                                            1 	(obj:7)
t_x_1693                                            1 	(obj:11)
t_x_1694                                            1 	(obj:40)
t_x_1695                                            1 	(obj:19)
t_x_1697                                            1 	(obj:3)
t_x_1702                                            1 	(obj:19)
t_x_1704                                            1 	(obj:2)
t_x_1705                                            1 	(obj:29)
t_x_1706                                            1 	(obj:32)
t_x_1708                                            1 	(obj:47)
t_x_1713                                            1 	(obj:27)
t_x_1715                                            1 	(obj:16)
t_x_1721                                            1 	(obj:5)
t_x_1722                                            1 	(obj:33)
t_x_1724                                            1 	(obj:14)
t_x_1728                                            1 	(obj:27)
t_x_1733                                            1 	(obj:23)
t_x_1735                                            1 	(obj:14)
t_x_1737                                            1 	(obj:47)
t_x_1742                                            1 	(obj:9)
t_x_1744                                            1 	(obj:14)
t_x_1748                                            1 	(obj:24)
t_x_1750                                            1 	(obj:13)
t_x_1751                                            1 	(obj:38)
t_x_1755                                            1 	(obj:21)
t_x_1756                                            1 	(obj:16)
t_x_1762                                            1 	(obj:5)
t_x_1764                                            1 	(obj:19)
t_x_1766                                            1 	(obj:39)
t_x_1768                                            1 	(obj:17)
t_x_1769                                            1 	(obj:5)
t_x_1773                                            1 	(obj:27)
t_x_1774                                            1 	(obj:24)
t_x_1775                                            1 	(obj:51)
t_x_1779                                            1 	(obj:39)
t_x_1786                                            1 	(obj:46)
t_x_1787                                            1 	(obj:3)
t_x_1794                                            1 	(obj:19)
t_x_1795                                            1 	(obj:1)
t_x_1796                                            1 	(obj:4)
t_x_1797                                            1 	(obj:25)
t_x_1802                                            1 	(obj:0)
t_x_1804                                            1 	(obj:6)
t_x_1805                                            1 	(obj:5)
t_x_1815                                            1 	(obj:25)
t_x_1818                                            1 	(obj:1)
t_x_1819                                            1 	(obj:26)
t_x_1824                                            1 	(obj:28)
t_x_1829                                            1 	(obj:48)
t_x_1830                                            1 	(obj:20)
t_x_1831                                            1 	(obj:8)
t_x_1833                                            1 	(obj:0)
t_x_1835                                            1 	(obj:8)
t_x_1838                                            1 	(obj:12)
t_x_1839                                            1 	(obj:4)
t_x_1844                                            1 	(obj:10)
t_x_1845                                            1 	(obj:0)
t_x_1846                                            1 	(obj:17)
t_x_1847                                            1 	(obj:32)
t_x_1852                                            1 	(obj:5)
t_x_1863                                            1 	(obj:37)
t_x_1866                                            1 	(obj:21)
t_x_1868                                            1 	(obj:13)
t_x_1871                                            1 	(obj:13)
t_x_1874                                            1 	(obj:44)
t_x_1875                                            1 	(obj:28)
t_x_1877                                            1 	(obj:10)
t_x_1878                                            1 	(obj:3)
t_x_1879                                            1 	(obj:6)
t_x_1883                                            1 	(obj:29)
t_x_1886                                            1 	(obj:1)
t_x_1888                                            1 	(obj:12)
t_x_1904                                            1 	(obj:16)
t_x_1906                                            1 	(obj:20)
t_x_1907                                            1 	(obj:7)
t_x_1911                                            1 	(obj:6)
t_x_1914                                            1 	(obj:10)
t_x_1915                                            1 	(obj:24)
t_x_1919                                            1 	(obj:44)
t_x_1925                                            1 	(obj:13)
t_x_1927                                            1 	(obj:1)
t_x_1930                                            1 	(obj:12)
t_x_1932                                            1 	(obj:11)
t_x_1940                                            1 	(obj:16)
t_x_1953                                            1 	(obj:34)
t_x_1955                                            1 	(obj:7)
t_x_1957                                            1 	(obj:18)
t_x_1959                                            1 	(obj:20)
t_x_1961                                            1 	(obj:26)
t_x_1964                                            1 	(obj:0)
t_x_1966                                            1 	(obj:3)
t_x_1967                                            1 	(obj:16)
t_x_1972                                            1 	(obj:1)
t_x_1974                                            1 	(obj:38)
t_x_1976                                            1 	(obj:15)
t_x_1978                                            1 	(obj:30)
t_x_1979                                            1 	(obj:12)
t_x_1982                                            1 	(obj:19)
t_x_1983                                            1 	(obj:21)
t_x_1995                                            1 	(obj:31)
t_x_1996                                            1 	(obj:1)
